GLPK MODELING LANGUAGES

See:
    http://en.wikibooks.org/wiki/GLPK/Interoperability
    http://en.wikibooks.org/wiki/GLPK/GLPK_file_extensions


glpsol options:
    --mps             read LP/MIP problem in fixed MPS format
    --freemps         read LP/MIP problem in free MPS format (default)
    --lp              read LP/MIP problem in CPLEX LP format
    --glp             read LP/MIP problem in GLPK format 
    --math            read LP/MIP model written in GNU MathProg modeling language


GMPL/MathProg format (close to AMPL format) (default)

    var x1;
    var x2;
    maximize obj: 0.6 * x1 + 0.5 * x2;
    s.t. c1: x1 + 2 * x2 <= 1;
    s.t. c2: 3 * x1 + x2 <= 2;
    solve;
    display x1, x2;
    end;


CPLEX LP format

    The following command convert short.mod (written with GMPL/MathProg format) in CPLEX LP format.
    $ glpsol --check --wlp short.lp --math short.mod 

    \* Problem: short *\

    Maximize
     obj: + 0.6 x1 + 0.5 x2

    Subject To
     c1: + x1 + 2 x2 <= 1
     c2: + 3 x1 + x2 <= 2

    Bounds
     x1 free
     x2 free

    End


MPS fixed format

    The following command convert short.mod (written with GMPL/MathProg format) in MPS fixed format.
    $ glpsol --check --wmps short.mps --math short.mod 

    * Problem:    short
    * Class:      LP
    * Rows:       3
    * Columns:    2
    * Non-zeros:  6
    * Format:     Fixed MPS
    *
    NAME          short
    ROWS
     N  obj
     L  c1
     L  c2
    COLUMNS
        x1        obj                0.6   c1                   1
        x1        c2                   3
        x2        obj                0.5   c1                   2
        x2        c2                   1
    RHS
        RHS1      c1                   1   c2                   2
    BOUNDS
     FR BND1      x1      
     FR BND1      x2      
    ENDATA


MPS free format

    The following command convert short.mod (written with GMPL/MathProg format) in MPS free format.
    $ glpsol --check --wfreemps short.mps --math short.mod 

    * Problem:    short
    * Class:      LP
    * Rows:       3
    * Columns:    2
    * Non-zeros:  6
    * Format:     Free MPS
    *
    NAME short
    ROWS
     N obj
     L c1
     L c2
    COLUMNS
     x1 obj 0.6 c1 1
     x1 c2 3
     x2 obj 0.5 c1 2
     x2 c2 1
    RHS
     RHS1 c1 1 c2 2
    BOUNDS
     FR BND1 x1
     FR BND1 x2
    ENDATA


GLPK format

    The following command convert short.mod (written with GMPL/MathProg format) in GLPK format (not very legible for humans).
    $ glpsol --check --wglp short.glp --math short.mod 

    p lp max 3 2 6
    n p short
    n z obj
    i 1 f
    n i 1 obj
    i 2 u 1
    n i 2 c1
    i 3 u 2
    n i 3 c2
    j 1 f
    n j 1 x1
    j 2 f
    n j 2 x2
    a 0 1 0.6
    a 0 2 0.5
    a 1 1 0.6
    a 1 2 0.5
    a 2 1 1
    a 2 2 2
    a 3 1 3
    a 3 2 1
    e o f

